
Gurobi 6.0.5 (linux64) logging started Fri Oct 20 12:48:43 2017


Gurobi 6.0.5 (linux64) logging started Fri Oct 20 12:48:43 2017


Gurobi 6.0.5 (linux64) logging started Fri Oct 20 12:48:43 2017


Gurobi 6.0.5 (linux64) logging started Fri Oct 20 12:48:43 2017


Gurobi 6.0.5 (linux64) logging started Fri Oct 20 12:48:44 2017


Gurobi 6.0.5 (linux64) logging started Fri Oct 20 12:48:44 2017


Gurobi 6.0.5 (linux64) logging started Fri Oct 20 12:48:44 2017


Gurobi 6.0.5 (linux64) logging started Fri Oct 20 12:48:44 2017


Gurobi 6.0.5 (linux64) logging started Fri Oct 20 12:48:44 2017


Gurobi 6.0.5 (linux64) logging started Fri Oct 20 14:21:46 2017


Gurobi 6.0.5 (linux64) logging started Fri Oct 20 14:22:19 2017


Gurobi 6.0.5 (linux64) logging started Fri Oct 20 14:31:26 2017


Gurobi 6.0.5 (linux64) logging started Fri Oct 20 14:32:06 2017


Gurobi 6.0.5 (linux64) logging started Fri Oct 20 14:36:27 2017


Gurobi 6.0.5 (linux64) logging started Fri Oct 20 14:38:00 2017


Gurobi 6.0.5 (linux64) logging started Fri Oct 20 14:41:44 2017


Gurobi 6.0.5 (linux64) logging started Fri Oct 20 14:43:17 2017


Gurobi 6.0.5 (linux64) logging started Fri Oct 20 14:50:10 2017


Gurobi 6.0.5 (linux64) logging started Fri Oct 20 14:51:54 2017


Gurobi 6.0.5 (linux64) logging started Fri Oct 20 14:56:37 2017


Gurobi 6.0.5 (linux64) logging started Fri Oct 20 14:57:43 2017


Gurobi 6.0.5 (linux64) logging started Fri Oct 20 15:03:18 2017


Gurobi 6.0.5 (linux64) logging started Fri Oct 20 15:04:33 2017


Gurobi 6.0.5 (linux64) logging started Fri Oct 20 15:11:04 2017


Gurobi 6.0.5 (linux64) logging started Fri Oct 20 15:12:16 2017


Gurobi 6.0.5 (linux64) logging started Fri Oct 20 15:19:48 2017


Gurobi 6.0.5 (linux64) logging started Fri Oct 20 15:21:05 2017


Gurobi 6.0.5 (linux64) logging started Fri Oct 20 15:32:33 2017


Gurobi 6.0.5 (linux64) logging started Fri Oct 20 15:33:02 2017


Gurobi 6.0.5 (linux64) logging started Fri Oct 20 15:39:15 2017


Gurobi 6.0.5 (linux64) logging started Fri Oct 20 15:39:16 2017


Gurobi 6.0.5 (linux64) logging started Fri Oct 20 15:43:25 2017


Gurobi 6.0.5 (linux64) logging started Fri Oct 20 15:44:02 2017


Gurobi 6.0.5 (linux64) logging started Fri Oct 20 15:50:10 2017


Gurobi 6.0.5 (linux64) logging started Fri Oct 20 15:51:38 2017


Gurobi 6.0.5 (linux64) logging started Fri Oct 20 15:56:27 2017


Gurobi 6.0.5 (linux64) logging started Fri Oct 20 15:58:11 2017


Gurobi 6.0.5 (linux64) logging started Fri Oct 20 16:04:11 2017


Gurobi 6.0.5 (linux64) logging started Fri Oct 20 16:06:12 2017


Gurobi 6.0.5 (linux64) logging started Fri Oct 20 16:11:36 2017


Gurobi 6.0.5 (linux64) logging started Fri Oct 20 16:14:08 2017


Gurobi 6.0.5 (linux64) logging started Fri Oct 20 16:19:33 2017


Gurobi 6.0.5 (linux64) logging started Fri Oct 20 16:22:45 2017


Gurobi 6.0.5 (linux64) logging started Fri Oct 20 16:30:22 2017


Gurobi 6.0.5 (linux64) logging started Fri Oct 20 16:33:47 2017

